14257.03,48.85,55.49
15648.67,44.5,50.55
16604.71,41.94,47.64
16707.02,41.68,47.35
15114.86,46.07,52.34
14956.79,46.56,52.89
15200.93,45.81,52.04
14574.86,47.78,54.28
15131.32,46.02,52.28
15443.83,45.09,51.23
14548.04,47.87,54.38
15385.61,45.26,51.42
13490.68,51.62,58.64
15140.44,46.0,52.25
15302.66,45.51,51.7
15089.34,46.15,52.43
14860.81,46.86,53.23
14001.89,49.74,56.5
13906.76,50.08,56.89
14945.58,46.6,52.93
